words_hard_train/1913.qaiger
aag 93 16 0 1 77
2
4
8
12
16
20
24
28
32
34
38
42
46
50
54
110
187
6 3 5
10 6 9
14 10 13
18 14 17
22 18 21
26 22 25
30 26 28
36 32 34
40 37 39
44 41 42
48 44 46
52 49 51
56 53 55
58 52 54
60 57 59
62 60 28
64 48 50
66 65 53
68 66 24
70 23 29
72 69 70
74 71 24
76 73 75
78 19 29
80 78 21
82 79 20
84 81 83
86 45 47
88 87 20
90 88 49
92 84 91
94 77 93
96 90 79
98 15 29
100 40 43
102 101 16
104 102 45
106 99 104
108 97 107
112 110 2
114 113 36
116 32 8
118 111 2
120 117 119
122 121 29
124 115 123
126 11 29
128 127 5
130 33 35
132 131 37
134 133 4
136 8 28
138 134 137
140 129 139
142 124 140
144 142 126
146 127 12
148 145 147
150 99 17
152 98 16
154 151 153
156 155 105
158 36 38
160 159 41
162 126 12
164 163 142
166 160 165
168 157 167
170 149 168
172 108 171
174 94 173
176 67 74
178 175 177
180 63 179
182 31 180
184 181 26
186 183 185
i0 1 x1[0]
i1 1 x1[2]
i2 1 x1[1]
i3 1 x1[3]
i4 1 x1[4]
i5 1 x1[5]
i6 1 x1[6]
i7 1 x1[7]
i8 2 y2[1]
i9 2 y2[2]
i10 2 y2[3]
i11 2 y2[4]
i12 2 y2[5]
i13 2 y2[6]
i14 2 y2[7]
i15 2 y2[0]
o0 bv[0]
c
simplified
  >=
    and
      1 x1
      subtract
        2 y2
        54
    abs
      1 x1
