words_hard_train/1913.qaiger.qdimacs
p cnf 93 232
a 1 2 4 6 8 10 12 14 0
e 3 5 7 9 11 13 15 16 17 18 19 20 21 22 23 24 25 26 27 28 29 30 31 32 33 34 35 36 37 38 39 40 41 42 43 44 45 46 47 48 49 50 51 52 53 54 55 56 57 58 59 60 61 62 63 64 65 66 67 68 69 70 71 72 73 74 75 76 77 78 79 80 81 82 83 84 85 86 87 88 89 90 91 92 93 0
1 2 3 0
-1 -3 0
-2 -3 0
-3 4 5 0
3 -5 0
-4 -5 0
-5 6 7 0
5 -7 0
-6 -7 0
-7 8 9 0
7 -9 0
-8 -9 0
-9 10 11 0
9 -11 0
-10 -11 0
-11 12 13 0
11 -13 0
-12 -13 0
-13 -14 15 0
13 -15 0
14 -15 0
-16 -17 18 0
16 -18 0
17 -18 0
18 19 20 0
-18 -20 0
-19 -20 0
20 -21 22 0
-20 -22 0
21 -22 0
-22 -23 24 0
22 -24 0
23 -24 0
24 25 26 0
-24 -26 0
-25 -26 0
26 27 28 0
-26 -28 0
-27 -28 0
-26 -27 29 0
26 -29 0
27 -29 0
28 29 30 0
-28 -30 0
-29 -30 0
-30 -14 31 0
30 -31 0
14 -31 0
-24 -25 32 0
24 -32 0
25 -32 0
32 26 33 0
-32 -33 0
-26 -33 0
-33 -12 34 0
33 -34 0
12 -34 0
11 14 35 0
-11 -35 0
-14 -35 0
34 -35 36 0
-34 -36 0
35 -36 0
35 -12 37 0
-35 -37 0
12 -37 0
36 37 38 0
-36 -38 0
-37 -38 0
9 14 39 0
-9 -39 0
-14 -39 0
-39 10 40 0
39 -40 0
-10 -40 0
39 -10 41 0
-39 -41 0
10 -41 0
40 41 42 0
-40 -42 0
-41 -42 0
22 23 43 0
-22 -43 0
-23 -43 0
43 -10 44 0
-43 -44 0
10 -44 0
-44 24 45 0
44 -45 0
-24 -45 0
-42 45 46 0
42 -46 0
-45 -46 0
38 46 47 0
-38 -47 0
-46 -47 0
-45 39 48 0
45 -48 0
-39 -48 0
7 14 49 0
-7 -49 0
-14 -49 0
-20 21 50 0
20 -50 0
-21 -50 0
50 -8 51 0
-50 -51 0
8 -51 0
-51 22 52 0
51 -52 0
-22 -52 0
49 -52 53 0
-49 -53 0
52 -53 0
48 53 54 0
-48 -54 0
-53 -54 0
-55 -1 56 0
55 -56 0
1 -56 0
56 -18 57 0
-56 -57 0
18 -57 0
-16 -4 58 0
16 -58 0
4 -58 0
55 -1 59 0
-55 -59 0
1 -59 0
58 59 60 0
-58 -60 0
-59 -60 0
60 14 61 0
-60 -61 0
-14 -61 0
57 61 62 0
-57 -62 0
-61 -62 0
5 14 63 0
-5 -63 0
-14 -63 0
63 2 64 0
-63 -64 0
-2 -64 0
16 17 65 0
-16 -65 0
-17 -65 0
65 18 66 0
-65 -66 0
-18 -66 0
66 -2 67 0
-66 -67 0
2 -67 0
-4 -14 68 0
4 -68 0
14 -68 0
-67 68 69 0
67 -69 0
-68 -69 0
64 69 70 0
-64 -70 0
-69 -70 0
-62 -70 71 0
62 -71 0
70 -71 0
-71 -63 72 0
71 -72 0
63 -72 0
63 -6 73 0
-63 -73 0
6 -73 0
72 73 74 0
-72 -74 0
-73 -74 0
49 8 75 0
-49 -75 0
-8 -75 0
-49 -8 76 0
49 -76 0
8 -76 0
75 76 77 0
-75 -77 0
-76 -77 0
77 52 78 0
-77 -78 0
-52 -78 0
-18 -19 79 0
18 -79 0
19 -79 0
79 20 80 0
-79 -80 0
-20 -80 0
-63 -6 81 0
63 -81 0
6 -81 0
81 -71 82 0
-81 -82 0
71 -82 0
-80 82 83 0
80 -83 0
-82 -83 0
78 83 84 0
-78 -84 0
-83 -84 0
74 -84 85 0
-74 -85 0
84 -85 0
-54 85 86 0
54 -86 0
-85 -86 0
-47 86 87 0
47 -87 0
-86 -87 0
33 -37 88 0
-33 -88 0
37 -88 0
87 88 89 0
-87 -89 0
-88 -89 0
31 89 90 0
-31 -90 0
-89 -90 0
15 -90 91 0
-15 -91 0
90 -91 0
90 -13 92 0
-90 -92 0
13 -92 0
91 92 93 0
-91 -93 0
-92 -93 0
-93 0
